Set parameter TokenServer to value "hpc-licenses.hpcc.usc.edu"
Set parameter TimeLimit to value 3600
Gurobi Optimizer version 9.5.1 build v9.5.1rc2 (linux64)
Thread count: 20 physical cores, 20 logical processors, using up to 20 threads
Optimize a model with 6007 rows, 4529 columns and 24534 nonzeros
Model fingerprint: 0x01188d75
Variable types: 4506 continuous, 23 integer (23 binary)
Coefficient statistics:
  Matrix range     [1e+00, 1e+00]
  Objective range  [3e-06, 1e+00]
  Bounds range     [1e+00, 1e+00]
  RHS range        [1e+00, 1e+02]
Presolve removed 1520 rows and 1515 columns
Presolve time: 0.07s
Presolved: 4487 rows, 3014 columns, 21975 nonzeros
Variable types: 2994 continuous, 20 integer (20 binary)
Found heuristic solution: objective 261.4630778
Found heuristic solution: objective 261.8036578

Root relaxation: objective 2.750033e+02, 3441 iterations, 0.11 seconds (0.13 work units)

    Nodes    |    Current Node    |     Objective Bounds      |     Work
 Expl Unexpl |  Obj  Depth IntInf | Incumbent    BestBd   Gap | It/Node Time

     0     0  275.00327    0    2  261.80366  275.00327  5.04%     -    0s
     0     0  274.80810    0    2  261.80366  274.80810  4.97%     -    0s
     0     0  274.68981    0    2  261.80366  274.68981  4.92%     -    0s
H    0     0                     263.3378909  274.68537  4.31%     -    0s
     0     0  274.68537    0    2  263.33789  274.68537  4.31%     -    0s
     0     0  274.58510    0    2  263.33789  274.58510  4.27%     -    0s
     0     0  274.50895    0    2  263.33789  274.50895  4.24%     -    0s
     0     0  273.71862    0    2  263.33789  273.71862  3.94%     -    0s
     0     0  273.71581    0    2  263.33789  273.71581  3.94%     -    0s
     0     0  272.96452    0    2  263.33789  272.96452  3.66%     -    0s
     0     0  272.96452    0    2  263.33789  272.96452  3.66%     -    0s
     0     2  272.96452    0    2  263.33789  272.96452  3.66%     -    1s
*    6     2               3     264.8580096  271.65916  2.57%   500    1s
*    8     2               4     266.8131193  271.42352  1.73%   428    2s
*   12     2               6     267.2821129  271.28383  1.50%   358    2s
*   14     2               7     271.0398841  271.03988  0.00%   356    3s

Cutting planes:
  Gomory: 3
  MIR: 220
  Flow cover: 1
  RLT: 12

Explored 15 nodes (8938 simplex iterations) in 3.05 seconds (1.33 work units)
Thread count was 20 (of 20 available processors)

Solution count 7: 271.04 267.282 266.813 ... 261.463

Optimal solution found (tolerance 1.00e-04)
Best objective 2.710398841377e+02, best bound 2.710398841377e+02, gap 0.0000%



#########node  1
V1.7
#########node  2
0.047619047619047616,0.9523809523809523
#########node  3
1.0,0.0


Total Solving Time 3.513706922531128
obj value 271.03988413770367
Policy Regret train (Sum) 9.912030792665206
Best Treatment Found train (%) 57.599999999999994
treatment classification acc train (%) 28.799999999999997
Policy Regret test (Sum) 38.72832714295484
Best Treatment Found test (%) 81.04
treatment classification acc test (%) 25.619999999999997
